p cnf 363 954
1 -2 0
2 -1 0
3 -4 0
4 -3 0
5 -6 0
6 -5 0
7 -8 0
8 -7 0
9 -10 0
10 -9 0
11 -12 0
12 -11 0
13 -14 0
14 -13 0
15 -16 0
16 -15 0
17 -18 0
18 -17 0
19 -20 0
20 -19 0
21 22 0
23 22 0
-21 -23 -22 0
-24 22 -25 0
24 -22 -25 0
25 -22 -24 0
24 22 25 0
-25 0
26 27 0
28 27 0
-26 -28 -27 0
-23 27 -29 0
23 -27 -29 0
29 -27 -23 0
23 27 29 0
-29 0
26 30 0
31 30 0
-26 -31 -30 0
-28 30 -32 0
28 -30 -32 0
32 -30 -28 0
28 30 32 0
-32 0
33 34 0
35 34 0
-33 -35 -34 0
-36 34 -37 0
36 -34 -37 0
37 -34 -36 0
36 34 37 0
-37 0
38 39 0
40 39 0
-38 -40 -39 0
-35 39 -41 0
35 -39 -41 0
41 -39 -35 0
35 39 41 0
-41 0
42 43 0
44 43 0
-42 -44 -43 0
-40 43 -45 0
40 -43 -45 0
45 -43 -40 0
40 43 45 0
-45 0
46 47 0
48 47 0
-46 -48 -47 0
-44 47 -49 0
44 -47 -49 0
49 -47 -44 0
44 47 49 0
-49 0
46 50 0
51 50 0
-46 -51 -50 0
-48 50 -52 0
48 -50 -52 0
52 -50 -48 0
48 50 52 0
-52 0
53 54 0
55 54 0
-53 -55 -54 0
-56 54 -57 0
56 -54 -57 0
57 -54 -56 0
56 54 57 0
-57 0
58 59 0
60 59 0
-58 -60 -59 0
-55 59 -61 0
55 -59 -61 0
61 -59 -55 0
55 59 61 0
-61 0
62 63 0
64 63 0
-62 -64 -63 0
-60 63 -65 0
60 -63 -65 0
65 -63 -60 0
60 63 65 0
-65 0
66 67 0
68 67 0
-66 -68 -67 0
-64 67 -69 0
64 -67 -69 0
69 -67 -64 0
64 67 69 0
-69 0
70 71 0
72 71 0
-70 -72 -71 0
-68 71 -73 0
68 -71 -73 0
73 -71 -68 0
68 71 73 0
-73 0
62 74 0
66 74 0
70 74 0
75 74 0
-76 0
-72 74 -77 0
72 -74 -77 0
77 -74 -72 0
72 74 77 0
-77 0
78 79 0
80 79 0
-78 -80 -79 0
-81 79 -82 0
81 -79 -82 0
82 -79 -81 0
81 79 82 0
-82 0
83 84 0
85 84 0
-83 -85 -84 0
-80 84 -86 0
80 -84 -86 0
86 -84 -80 0
80 84 86 0
-86 0
87 88 0
89 88 0
-87 -89 -88 0
-85 88 -90 0
85 -88 -90 0
90 -88 -85 0
85 88 90 0
-90 0
91 92 0
93 92 0
-91 -93 -92 0
-89 92 -94 0
89 -92 -94 0
94 -92 -89 0
89 92 94 0
-94 0
95 96 0
97 96 0
-95 -97 -96 0
-93 96 -98 0
93 -96 -98 0
98 -96 -93 0
93 96 98 0
-98 0
87 99 0
91 99 0
95 99 0
100 99 0
-101 0
-97 99 -102 0
97 -99 -102 0
102 -99 -97 0
97 99 102 0
-102 0
103 104 0
105 104 0
-103 -105 -104 0
-106 104 -107 0
106 -104 -107 0
107 -104 -106 0
106 104 107 0
-107 0
108 109 0
110 109 0
-108 -110 -109 0
-105 109 -111 0
105 -109 -111 0
111 -109 -105 0
105 109 111 0
-111 0
112 113 0
114 113 0
-112 -114 -113 0
-110 113 -115 0
110 -113 -115 0
115 -113 -110 0
110 113 115 0
-115 0
114 -116 0
116 -114 0
117 118 0
119 118 0
-117 -119 -118 0
-120 118 -121 0
120 -118 -121 0
121 -118 -120 0
120 118 121 0
-121 0
122 123 0
124 123 0
-122 -124 -123 0
-119 123 -125 0
119 -123 -125 0
125 -123 -119 0
119 123 125 0
-125 0
126 127 0
128 127 0
-126 -128 -127 0
-124 127 -129 0
124 -127 -129 0
129 -127 -124 0
124 127 129 0
-129 0
130 131 0
132 131 0
-130 -132 -131 0
-128 131 -133 0
128 -131 -133 0
133 -131 -128 0
128 131 133 0
-133 0
134 135 0
136 135 0
-134 -136 -135 0
-132 135 -137 0
132 -135 -137 0
137 -135 -132 0
132 135 137 0
-137 0
130 138 0
134 138 0
139 138 0
-130 -134 -139 -138 0
-136 138 -140 0
136 -138 -140 0
140 -138 -136 0
136 138 140 0
-140 0
141 142 0
143 142 0
-141 -143 -142 0
-144 142 -145 0
144 -142 -145 0
145 -142 -144 0
144 142 145 0
-145 0
146 147 0
148 147 0
-146 -148 -147 0
-143 147 -149 0
143 -147 -149 0
149 -147 -143 0
143 147 149 0
-149 0
150 151 0
152 151 0
-150 -152 -151 0
-148 151 -153 0
148 -151 -153 0
153 -151 -148 0
148 151 153 0
-153 0
154 155 0
156 155 0
-154 -156 -155 0
-152 155 -157 0
152 -155 -157 0
157 -155 -152 0
152 155 157 0
-157 0
156 -158 0
158 -156 0
159 160 0
161 160 0
-159 -161 -160 0
-162 160 -163 0
162 -160 -163 0
163 -160 -162 0
162 160 163 0
-163 0
164 165 0
166 165 0
-164 -166 -165 0
-161 165 -167 0
161 -165 -167 0
167 -165 -161 0
161 165 167 0
-167 0
168 169 0
170 169 0
-168 -170 -169 0
-166 169 -171 0
166 -169 -171 0
171 -169 -166 0
166 169 171 0
-171 0
172 173 0
174 173 0
-172 -174 -173 0
-170 173 -175 0
170 -173 -175 0
175 -173 -170 0
170 173 175 0
-175 0
176 177 0
178 177 0
-176 -178 -177 0
-174 177 -179 0
174 -177 -179 0
179 -177 -174 0
174 177 179 0
-179 0
172 180 0
176 180 0
181 180 0
-172 -176 -181 -180 0
-178 180 -182 0
178 -180 -182 0
182 -180 -178 0
178 180 182 0
-182 0
183 184 0
185 184 0
-183 -185 -184 0
-186 184 -187 0
186 -184 -187 0
187 -184 -186 0
186 184 187 0
-187 0
188 189 0
190 189 0
-188 -190 -189 0
-185 189 -191 0
185 -189 -191 0
191 -189 -185 0
185 189 191 0
-191 0
192 193 0
194 193 0
-192 -194 -193 0
-190 193 -195 0
190 -193 -195 0
195 -193 -190 0
190 193 195 0
-195 0
196 197 0
198 197 0
-196 -198 -197 0
-194 197 -199 0
194 -197 -199 0
199 -197 -194 0
194 197 199 0
-199 0
200 201 0
202 201 0
-200 -202 -201 0
-198 201 -203 0
198 -201 -203 0
203 -201 -198 0
198 201 203 0
-203 0
204 205 0
206 205 0
-204 -206 -205 0
-202 205 -207 0
202 -205 -207 0
207 -205 -202 0
202 205 207 0
-207 0
208 209 0
210 209 0
-208 -210 -209 0
-206 209 -211 0
206 -209 -211 0
211 -209 -206 0
206 209 211 0
-211 0
200 212 0
204 212 0
208 212 0
213 212 0
-214 0
-210 212 -215 0
210 -212 -215 0
215 -212 -210 0
210 212 215 0
-215 0
216 217 0
218 217 0
-216 -218 -217 0
-219 217 -220 0
219 -217 -220 0
220 -217 -219 0
219 217 220 0
-220 0
221 222 0
223 222 0
-221 -223 -222 0
-218 222 -224 0
218 -222 -224 0
224 -222 -218 0
218 222 224 0
-224 0
225 226 0
227 226 0
-225 -227 -226 0
-223 226 -228 0
223 -226 -228 0
228 -226 -223 0
223 226 228 0
-228 0
229 230 0
231 230 0
-229 -231 -230 0
-227 230 -232 0
227 -230 -232 0
232 -230 -227 0
227 230 232 0
-232 0
229 233 0
234 233 0
-229 -234 -233 0
-231 233 -235 0
231 -233 -235 0
235 -233 -231 0
231 233 235 0
-235 0
236 -2 -237 0
2 -236 -237 0
-236 -2 237 0
2 236 237 0
-237 0
238 -4 -239 0
4 -238 -239 0
-238 -4 239 0
4 238 239 0
-239 0
240 -6 -241 0
6 -240 -241 0
-240 -6 241 0
6 240 241 0
-241 0
242 -8 -243 0
8 -242 -243 0
-242 -8 243 0
8 242 243 0
-243 0
244 -10 -245 0
10 -244 -245 0
-244 -10 245 0
10 244 245 0
-245 0
246 -12 -247 0
12 -246 -247 0
-246 -12 247 0
12 246 247 0
-247 0
248 -14 -249 0
14 -248 -249 0
-248 -14 249 0
14 248 249 0
-249 0
250 -16 -251 0
16 -250 -251 0
-250 -16 251 0
16 250 251 0
-251 0
252 -18 -253 0
18 -252 -253 0
-252 -18 253 0
18 252 253 0
-253 0
254 -20 -255 0
20 -254 -255 0
-254 -20 255 0
20 254 255 0
-255 0
256 -21 -257 0
21 -256 -257 0
-256 -21 257 0
21 256 257 0
-257 0
258 -26 -259 0
26 -258 -259 0
-258 -26 259 0
26 258 259 0
-259 0
260 -31 -261 0
31 -260 -261 0
-260 -31 261 0
31 260 261 0
-261 0
262 -33 -263 0
33 -262 -263 0
-262 -33 263 0
33 262 263 0
-263 0
264 -38 -265 0
38 -264 -265 0
-264 -38 265 0
38 264 265 0
-265 0
266 -42 -267 0
42 -266 -267 0
-266 -42 267 0
42 266 267 0
-267 0
268 -46 -269 0
46 -268 -269 0
-268 -46 269 0
46 268 269 0
-269 0
270 -51 -271 0
51 -270 -271 0
-270 -51 271 0
51 270 271 0
-271 0
272 -53 -273 0
53 -272 -273 0
-272 -53 273 0
53 272 273 0
-273 0
274 -58 -275 0
58 -274 -275 0
-274 -58 275 0
58 274 275 0
-275 0
276 -62 -277 0
62 -276 -277 0
-276 -62 277 0
62 276 277 0
-277 0
278 -66 -279 0
66 -278 -279 0
-278 -66 279 0
66 278 279 0
-279 0
280 -70 -281 0
70 -280 -281 0
-280 -70 281 0
70 280 281 0
-281 0
282 -75 -283 0
75 -282 -283 0
-282 -75 283 0
75 282 283 0
-283 0
284 -78 -285 0
78 -284 -285 0
-284 -78 285 0
78 284 285 0
-285 0
286 -83 -287 0
83 -286 -287 0
-286 -83 287 0
83 286 287 0
-287 0
288 -87 -289 0
87 -288 -289 0
-288 -87 289 0
87 288 289 0
-289 0
290 -91 -291 0
91 -290 -291 0
-290 -91 291 0
91 290 291 0
-291 0
292 -95 -293 0
95 -292 -293 0
-292 -95 293 0
95 292 293 0
-293 0
294 -100 -295 0
100 -294 -295 0
-294 -100 295 0
100 294 295 0
-295 0
296 -103 -297 0
103 -296 -297 0
-296 -103 297 0
103 296 297 0
-297 0
298 -108 -299 0
108 -298 -299 0
-298 -108 299 0
108 298 299 0
-299 0
300 -112 -301 0
112 -300 -301 0
-300 -112 301 0
112 300 301 0
-301 0
302 -116 -303 0
116 -302 -303 0
-302 -116 303 0
116 302 303 0
-303 0
304 -117 -305 0
117 -304 -305 0
-304 -117 305 0
117 304 305 0
-305 0
306 -122 -307 0
122 -306 -307 0
-306 -122 307 0
122 306 307 0
-307 0
308 -126 -309 0
126 -308 -309 0
-308 -126 309 0
126 308 309 0
-309 0
310 -130 -311 0
130 -310 -311 0
-310 -130 311 0
130 310 311 0
-311 0
312 -134 -313 0
134 -312 -313 0
-312 -134 313 0
134 312 313 0
-313 0
314 -139 -315 0
139 -314 -315 0
-314 -139 315 0
139 314 315 0
-315 0
316 -141 -317 0
141 -316 -317 0
-316 -141 317 0
141 316 317 0
-317 0
318 -146 -319 0
146 -318 -319 0
-318 -146 319 0
146 318 319 0
-319 0
320 -150 -321 0
150 -320 -321 0
-320 -150 321 0
150 320 321 0
-321 0
322 -154 -323 0
154 -322 -323 0
-322 -154 323 0
154 322 323 0
-323 0
324 -158 -325 0
158 -324 -325 0
-324 -158 325 0
158 324 325 0
-325 0
326 -159 -327 0
159 -326 -327 0
-326 -159 327 0
159 326 327 0
-327 0
328 -164 -329 0
164 -328 -329 0
-328 -164 329 0
164 328 329 0
-329 0
330 -168 -331 0
168 -330 -331 0
-330 -168 331 0
168 330 331 0
-331 0
332 -172 -333 0
172 -332 -333 0
-332 -172 333 0
172 332 333 0
-333 0
334 -176 -335 0
176 -334 -335 0
-334 -176 335 0
176 334 335 0
-335 0
336 -181 -337 0
181 -336 -337 0
-336 -181 337 0
181 336 337 0
-337 0
338 -183 -339 0
183 -338 -339 0
-338 -183 339 0
183 338 339 0
-339 0
340 -188 -341 0
188 -340 -341 0
-340 -188 341 0
188 340 341 0
-341 0
342 -192 -343 0
192 -342 -343 0
-342 -192 343 0
192 342 343 0
-343 0
344 -196 -345 0
196 -344 -345 0
-344 -196 345 0
196 344 345 0
-345 0
346 -200 -347 0
200 -346 -347 0
-346 -200 347 0
200 346 347 0
-347 0
348 -204 -349 0
204 -348 -349 0
-348 -204 349 0
204 348 349 0
-349 0
350 -208 -351 0
208 -350 -351 0
-350 -208 351 0
208 350 351 0
-351 0
352 -213 -353 0
213 -352 -353 0
-352 -213 353 0
213 352 353 0
-353 0
354 -216 -355 0
216 -354 -355 0
-354 -216 355 0
216 354 355 0
-355 0
356 -221 -357 0
221 -356 -357 0
-356 -221 357 0
221 356 357 0
-357 0
358 -225 -359 0
225 -358 -359 0
-358 -225 359 0
225 358 359 0
-359 0
360 -229 -361 0
229 -360 -361 0
-360 -229 361 0
229 360 361 0
-361 0
362 -234 -363 0
234 -362 -363 0
-362 -234 363 0
234 362 363 0
-363 0
1 0
3 0
5 0
7 0
9 0
11 0
13 0
15 0
17 0
19 0
-24 0
-36 0
-56 0
-81 0
-106 0
-120 0
-144 0
-162 0
-186 0
-219 0
236 -238 0
-236 238 0
236 -240 0
-236 240 0
236 -242 0
-236 242 0
236 -244 0
-236 244 0
236 -246 0
-236 246 0
236 -248 0
-236 248 0
236 -250 0
-236 250 0
236 -252 0
-236 252 0
236 -254 0
-236 254 0
236 -302 0
-236 302 0
236 -324 0
-236 324 0
238 -240 0
-238 240 0
238 -242 0
-238 242 0
238 -244 0
-238 244 0
238 -246 0
-238 246 0
238 -248 0
-238 248 0
238 -250 0
-238 250 0
238 -252 0
-238 252 0
238 -254 0
-238 254 0
238 -302 0
-238 302 0
238 -324 0
-238 324 0
240 -242 0
-240 242 0
240 -244 0
-240 244 0
240 -246 0
-240 246 0
240 -248 0
-240 248 0
240 -250 0
-240 250 0
240 -252 0
-240 252 0
240 -254 0
-240 254 0
240 -302 0
-240 302 0
240 -324 0
-240 324 0
242 -244 0
-242 244 0
242 -246 0
-242 246 0
242 -248 0
-242 248 0
242 -250 0
-242 250 0
242 -252 0
-242 252 0
242 -254 0
-242 254 0
242 -302 0
-242 302 0
242 -324 0
-242 324 0
244 -246 0
-244 246 0
244 -248 0
-244 248 0
244 -250 0
-244 250 0
244 -252 0
-244 252 0
244 -254 0
-244 254 0
244 -302 0
-244 302 0
244 -324 0
-244 324 0
246 -248 0
-246 248 0
246 -250 0
-246 250 0
246 -252 0
-246 252 0
246 -254 0
-246 254 0
246 -302 0
-246 302 0
246 -324 0
-246 324 0
248 -250 0
-248 250 0
248 -252 0
-248 252 0
248 -254 0
-248 254 0
248 -302 0
-248 302 0
248 -324 0
-248 324 0
250 -252 0
-250 252 0
250 -254 0
-250 254 0
250 -302 0
-250 302 0
250 -324 0
-250 324 0
252 -254 0
-252 254 0
252 -302 0
-252 302 0
252 -324 0
-252 324 0
254 -302 0
-254 302 0
254 -324 0
-254 324 0
256 -266 0
-256 266 0
258 -268 0
-258 268 0
260 -270 0
-260 270 0
258 -362 0
-258 362 0
260 -360 0
-260 360 0
268 -362 0
-268 362 0
270 -360 0
-270 360 0
288 -352 0
-288 352 0
290 -346 0
-290 346 0
292 -348 0
-292 348 0
294 -350 0
-294 350 0
298 -320 0
-298 320 0
300 -322 0
-300 322 0
302 -324 0
-302 324 0
308 -330 0
-308 330 0
310 -332 0
-310 332 0
312 -334 0
-312 334 0
314 -336 0
-314 336 0
